NAME: I14977-n40-k5
COMMENT : (Fake et al, No of trucks: 5, Optimal value: )
TYPE : CVRP
DIMENSION : 40
EDGE_WEIGHT_TYPE : EUC_2D
CAPACITY : 23
NODE_COORD_SECTION
1 227 107
2 667 311
3 665 6
4 953 27
5 705 591
6 723 694
7 159 161
8 579 764
9 830 731
10 538 57
11 152 978
12 239 854
13 201 195
14 549 720
15 581 15
16 928 507
17 842 699
18 783 750
19 339 479
20 454 242
21 33 452
22 912 616
23 295 721
24 441 417
25 948 205
26 254 788
27 163 167
28 994 212
29 554 463
30 463 364
31 265 130
32 208 6
33 172 790
34 112 65
35 455 959
36 621 903
37 158 922
38 650 315
39 947 104
40 48 615
DEMAND_SECTION
1 0
2 2
3 3
4 4
5 4
6 4
7 3
8 3
9 1
10 3
11 4
12 4
13 2
14 3
15 2
16 4
17 4
18 3
19 2
20 1
21 1
22 4
23 4
24 1
25 2
26 2
27 2
28 2
29 2
30 1
31 1
32 3
33 3
34 4
35 3
36 3
37 2
38 4
39 1
40 3
DEPOT_SECTION
 1
 -1
 EOF 